p edge 721 3948
e 1 3
e 1 4
e 1 6
e 1 13
e 1 14
e 1 17
e 1 20
e 1 22
e 1 25
e 1 30
e 1 33
e 1 36
e 1 39
e 1 42
e 1 44
e 1 47
e 1 53
e 1 55
e 1 63
e 1 121
e 1 139
e 1 159
e 1 177
e 1 202
e 1 223
e 1 376
e 1 459
e 1 469
e 1 586
e 1 615
e 1 622
e 1 630
e 1 646
e 1 655
e 1 694
e 1 706
e 1 720
e 2 3
e 2 5
e 2 8
e 2 10
e 2 15
e 2 16
e 2 18
e 2 23
e 2 26
e 2 28
e 2 31
e 2 34
e 2 35
e 2 37
e 2 40
e 2 45
e 2 48
e 2 58
e 2 60
e 2 122
e 2 140
e 2 160
e 2 178
e 2 203
e 2 378
e 2 510
e 2 517
e 2 531
e 2 532
e 2 607
e 2 623
e 2 639
e 2 656
e 2 657
e 2 675
e 2 697
e 2 712
e 3 7
e 3 9
e 3 11
e 3 12
e 3 19
e 3 21
e 3 24
e 3 27
e 3 29
e 3 32
e 3 33
e 3 34
e 3 35
e 3 36
e 3 38
e 3 41
e 3 43
e 3 46
e 3 49
e 3 50
e 3 51
e 3 52
e 3 54
e 3 56
e 3 57
e 3 59
e 3 61
e 3 62
e 3 123
e 3 141
e 3 161
e 3 179
e 3 204
e 3 224
e 3 323
e 3 328
e 3 331
e 3 335
e 3 343
e 3 488
e 3 551
e 3 553
e 3 554
e 3 594
e 3 595
e 3 628
e 3 636
e 3 643
e 3 670
e 3 672
e 3 693
e 3 707
e 4 69
e 4 70
e 4 71
e 4 180
e 4 421
e 4 454
e 4 476
e 4 615
e 4 616
e 5 78
e 5 79
e 5 80
e 5 81
e 5 82
e 5 83
e 5 124
e 5 517
e 5 522
e 6 64
e 6 69
e 6 81
e 6 83
e 6 84
e 6 86
e 6 87
e 6 89
e 6 91
e 6 553
e 6 558
e 6 604
e 6 646
e 6 682
e 6 699
e 7 9
e 7 85
e 7 92
e 7 93
e 7 94
e 7 95
e 7 462
e 7 463
e 7 515
e 7 553
e 7 673
e 8 9
e 8 10
e 8 66
e 8 78
e 8 88
e 8 91
e 8 98
e 8 441
e 8 460
e 8 461
e 8 521
e 8 625
e 8 649
e 8 699
e 9 11
e 9 66
e 9 87
e 9 92
e 9 96
e 9 97
e 9 455
e 9 558
e 9 581
e 10 11
e 10 71
e 10 74
e 10 79
e 10 99
e 10 101
e 10 104
e 10 106
e 10 421
e 10 578
e 10 598
e 10 611
e 10 649
e 10 669
e 11 12
e 11 71
e 11 96
e 11 100
e 11 102
e 11 103
e 11 105
e 11 543
e 11 645
e 12 100
e 12 107
e 12 108
e 12 109
e 12 110
e 12 111
e 12 549
e 12 552
e 12 559
e 12 643
e 13 14
e 13 66
e 13 77
e 13 86
e 13 116
e 13 117
e 13 206
e 13 441
e 13 454
e 13 546
e 14 67
e 14 71
e 14 79
e 14 83
e 14 112
e 14 116
e 14 433
e 14 475
e 14 582
e 15 16
e 15 65
e 15 80
e 15 101
e 15 120
e 15 142
e 15 385
e 15 461
e 15 484
e 15 671
e 16 69
e 16 75
e 16 81
e 16 120
e 16 383
e 16 421
e 16 429
e 16 460
e 16 474
e 17 19
e 17 20
e 17 30
e 17 236
e 17 238
e 17 241
e 17 520
e 17 606
e 18 19
e 18 31
e 18 76
e 18 235
e 18 243
e 18 701
e 18 712
e 19 21
e 19 32
e 19 108
e 19 113
e 19 162
e 19 181
e 19 235
e 19 236
e 19 237
e 19 239
e 19 240
e 19 242
e 19 329
e 19 332
e 19 445
e 19 458
e 19 467
e 19 524
e 19 571
e 19 606
e 19 620
e 19 653
e 19 683
e 19 688
e 19 701
e 20 21
e 20 22
e 20 96
e 20 105
e 20 231
e 20 244
e 20 247
e 20 525
e 20 558
e 21 24
e 21 104
e 21 182
e 21 207
e 21 244
e 21 245
e 21 246
e 21 247
e 21 249
e 21 333
e 21 336
e 21 423
e 21 444
e 21 447
e 21 521
e 21 564
e 21 577
e 21 601
e 21 602
e 21 610
e 21 616
e 21 649
e 21 689
e 21 703
e 21 712
e 22 24
e 22 25
e 22 250
e 22 253
e 22 257
e 22 668
e 22 682
e 22 716
e 23 24
e 23 26
e 23 82
e 23 251
e 23 252
e 23 258
e 23 712
e 24 27
e 24 125
e 24 143
e 24 163
e 24 208
e 24 225
e 24 250
e 24 251
e 24 252
e 24 253
e 24 254
e 24 255
e 24 256
e 24 259
e 24 260
e 24 337
e 24 435
e 24 457
e 24 462
e 24 489
e 24 560
e 24 585
e 24 600
e 24 632
e 25 27
e 25 68
e 25 263
e 25 270
e 25 586
e 25 651
e 26 27
e 26 28
e 26 261
e 26 262
e 26 266
e 26 269
e 26 625
e 27 29
e 27 97
e 27 126
e 27 144
e 27 164
e 27 183
e 27 226
e 27 261
e 27 262
e 27 263
e 27 264
e 27 265
e 27 267
e 27 268
e 27 271
e 27 344
e 27 490
e 27 537
e 27 568
e 27 603
e 27 651
e 27 673
e 27 678
e 27 684
e 28 29
e 28 31
e 28 88
e 28 172
e 28 173
e 28 273
e 28 274
e 28 562
e 28 598
e 29 32
e 29 87
e 29 102
e 29 127
e 29 145
e 29 171
e 29 184
e 29 209
e 29 272
e 29 273
e 29 274
e 29 275
e 29 276
e 29 277
e 29 498
e 29 522
e 29 528
e 29 570
e 29 572
e 29 586
e 29 604
e 29 605
e 29 652
e 29 700
e 29 704
e 30 32
e 30 278
e 30 476
e 30 586
e 30 660
e 30 679
e 31 32
e 31 279
e 31 280
e 31 283
e 31 539
e 31 611
e 31 662
e 32 146
e 32 165
e 32 210
e 32 227
e 32 278
e 32 279
e 32 280
e 32 281
e 32 282
e 32 284
e 32 324
e 32 481
e 32 482
e 32 519
e 32 559
e 32 589
e 32 599
e 32 619
e 32 645
e 32 663
e 32 676
e 32 679
e 32 713
e 33 34
e 33 109
e 33 128
e 33 147
e 33 185
e 33 211
e 33 244
e 33 250
e 33 272
e 33 278
e 33 287
e 33 289
e 33 291
e 33 294
e 33 390
e 33 397
e 33 432
e 33 436
e 33 439
e 33 441
e 33 461
e 33 470
e 33 505
e 33 518
e 33 529
e 33 530
e 33 592
e 33 606
e 33 641
e 33 651
e 33 654
e 33 671
e 33 687
e 33 692
e 33 717
e 34 69
e 34 71
e 34 83
e 34 115
e 34 129
e 34 148
e 34 186
e 34 212
e 34 235
e 34 245
e 34 251
e 34 261
e 34 273
e 34 279
e 34 285
e 34 286
e 34 288
e 34 290
e 34 293
e 34 295
e 34 387
e 34 395
e 34 422
e 34 427
e 34 545
e 34 552
e 34 555
e 34 587
e 34 617
e 34 635
e 34 640
e 34 642
e 34 665
e 34 710
e 35 36
e 35 65
e 35 66
e 35 72
e 35 77
e 35 93
e 35 118
e 35 149
e 35 166
e 35 187
e 35 246
e 35 252
e 35 262
e 35 274
e 35 280
e 35 298
e 35 299
e 35 301
e 35 303
e 35 306
e 35 308
e 35 398
e 35 415
e 35 428
e 35 448
e 35 471
e 35 506
e 35 533
e 35 565
e 35 638
e 35 667
e 35 681
e 35 691
e 35 701
e 35 715
e 36 73
e 36 79
e 36 81
e 36 94
e 36 119
e 36 130
e 36 150
e 36 188
e 36 213
e 36 236
e 36 247
e 36 253
e 36 263
e 36 275
e 36 297
e 36 300
e 36 302
e 36 305
e 36 307
e 36 377
e 36 386
e 36 394
e 36 421
e 36 438
e 36 540
e 36 556
e 36 596
e 36 621
e 36 634
e 36 637
e 36 644
e 36 661
e 36 679
e 36 708
e 37 38
e 37 40
e 37 285
e 37 311
e 37 471
e 37 578
e 37 607
e 38 41
e 38 49
e 38 103
e 38 110
e 38 131
e 38 151
e 38 167
e 38 189
e 38 214
e 38 237
e 38 264
e 38 285
e 38 312
e 38 342
e 38 469
e 38 470
e 38 471
e 38 480
e 38 519
e 38 536
e 38 548
e 38 577
e 38 605
e 38 609
e 38 629
e 38 637
e 38 650
e 38 705
e 39 41
e 39 42
e 39 238
e 39 297
e 39 315
e 39 469
e 39 654
e 39 702
e 40 41
e 40 286
e 40 313
e 40 484
e 40 531
e 40 638
e 41 43
e 41 111
e 41 114
e 41 190
e 41 239
e 41 286
e 41 297
e 41 314
e 41 316
e 41 345
e 41 424
e 41 446
e 41 447
e 41 457
e 41 464
e 41 468
e 41 482
e 41 497
e 41 566
e 41 638
e 41 652
e 41 654
e 41 666
e 41 686
e 41 695
e 41 714
e 42 43
e 42 44
e 42 87
e 42 96
e 42 102
e 42 174
e 42 176
e 42 287
e 42 431
e 42 438
e 43 46
e 43 88
e 43 116
e 43 175
e 43 191
e 43 215
e 43 228
e 43 287
e 43 325
e 43 422
e 43 434
e 43 435
e 43 438
e 43 448
e 43 456
e 43 458
e 43 481
e 43 531
e 43 537
e 43 546
e 43 582
e 43 588
e 43 598
e 43 612
e 43 649
e 43 658
e 43 718
e 44 46
e 44 47
e 44 89
e 44 318
e 44 432
e 44 644
e 45 46
e 45 48
e 45 298
e 45 317
e 45 429
e 45 531
e 45 665
e 46 90
e 46 152
e 46 168
e 46 192
e 46 216
e 46 229
e 46 240
e 46 265
e 46 276
e 46 298
e 46 319
e 46 330
e 46 432
e 46 463
e 46 516
e 46 523
e 46 550
e 46 567
e 46 594
e 46 610
e 46 627
e 46 632
e 46 633
e 46 644
e 46 665
e 46 721
e 47 117
e 47 300
e 47 320
e 47 592
e 47 594
e 47 630
e 48 98
e 48 266
e 48 288
e 48 299
e 48 322
e 48 594
e 48 607
e 49 105
e 49 120
e 49 133
e 49 154
e 49 170
e 49 194
e 49 232
e 49 248
e 49 255
e 49 268
e 49 282
e 49 289
e 49 290
e 49 301
e 49 302
e 49 339
e 49 383
e 49 385
e 49 466
e 49 534
e 49 558
e 49 590
e 49 594
e 49 604
e 49 607
e 49 630
e 49 653
e 49 685
e 50 195
e 50 256
e 50 303
e 50 346
e 50 426
e 50 549
e 50 554
e 50 595
e 50 596
e 50 648
e 50 684
e 50 697
e 51 52
e 51 135
e 51 155
e 51 291
e 51 352
e 51 472
e 51 515
e 51 599
e 51 617
e 51 620
e 51 672
e 51 720
e 52 172
e 52 309
e 52 483
e 52 540
e 52 563
e 52 581
e 52 595
e 52 655
e 52 683
e 52 687
e 52 689
e 53 54
e 53 55
e 53 106
e 53 249
e 53 270
e 53 296
e 53 320
e 53 355
e 53 357
e 53 371
e 53 494
e 53 500
e 53 529
e 53 576
e 53 649
e 53 681
e 53 691
e 53 694
e 53 699
e 53 708
e 53 718
e 54 56
e 54 62
e 54 248
e 54 271
e 54 369
e 54 372
e 54 512
e 54 513
e 54 529
e 54 570
e 54 608
e 54 708
e 55 56
e 55 91
e 55 304
e 55 305
e 55 310
e 55 353
e 55 358
e 55 373
e 55 493
e 55 555
e 55 587
e 55 588
e 55 602
e 55 649
e 55 659
e 55 660
e 55 669
e 56 57
e 56 305
e 56 374
e 56 375
e 56 477
e 56 514
e 56 528
e 56 650
e 56 676
e 56 685
e 56 715
e 57 59
e 57 242
e 57 284
e 57 306
e 57 307
e 57 361
e 57 478
e 57 495
e 57 575
e 57 639
e 57 695
e 57 705
e 58 59
e 58 60
e 58 91
e 58 243
e 58 309
e 58 313
e 58 349
e 58 359
e 58 362
e 58 364
e 58 491
e 58 492
e 58 528
e 58 533
e 58 604
e 58 639
e 58 640
e 58 669
e 58 685
e 58 687
e 58 692
e 59 61
e 59 363
e 59 486
e 59 496
e 59 533
e 59 571
e 59 573
e 59 588
e 59 602
e 59 640
e 59 714
e 60 61
e 60 106
e 60 248
e 60 258
e 60 292
e 60 293
e 60 317
e 60 347
e 60 360
e 60 365
e 60 501
e 60 556
e 60 570
e 60 604
e 60 621
e 60 624
e 60 699
e 61 62
e 61 249
e 61 259
e 61 293
e 61 366
e 61 367
e 61 487
e 61 507
e 61 550
e 61 641
e 61 718
e 62 260
e 62 294
e 62 295
e 62 368
e 62 370
e 62 508
e 62 511
e 62 584
e 62 603
e 62 694
e 62 721
e 63 170
e 63 176
e 63 221
e 63 315
e 63 356
e 63 358
e 63 533
e 63 534
e 63 622
e 63 681
e 63 692
e 63 693
e 64 65
e 64 69
e 64 93
e 64 214
e 64 227
e 64 615
e 64 642
e 64 653
e 65 70
e 65 118
e 65 217
e 65 384
e 65 443
e 65 580
e 65 615
e 65 646
e 66 67
e 66 93
e 66 108
e 66 111
e 66 239
e 66 401
e 66 416
e 66 454
e 66 479
e 66 485
e 66 547
e 66 615
e 67 71
e 67 118
e 67 182
e 67 215
e 67 240
e 67 615
e 67 642
e 68 73
e 68 105
e 68 111
e 68 213
e 68 225
e 68 615
e 68 627
e 68 666
e 69 70
e 69 115
e 69 131
e 69 389
e 69 442
e 69 536
e 70 72
e 70 132
e 70 226
e 70 255
e 70 552
e 70 646
e 71 381
e 71 437
e 71 454
e 71 462
e 71 463
e 71 552
e 71 557
e 71 597
e 71 632
e 72 73
e 72 77
e 72 82
e 72 115
e 72 124
e 72 144
e 72 454
e 72 552
e 73 74
e 73 75
e 73 109
e 73 125
e 73 421
e 73 439
e 73 440
e 74 79
e 74 109
e 74 152
e 74 163
e 74 441
e 74 517
e 74 537
e 75 81
e 75 127
e 75 154
e 75 264
e 75 439
e 75 517
e 75 671
e 76 88
e 76 95
e 76 148
e 76 165
e 76 517
e 76 609
e 76 614
e 76 642
e 77 86
e 77 112
e 77 144
e 77 379
e 77 388
e 77 517
e 77 646
e 78 79
e 78 94
e 78 162
e 78 190
e 78 441
e 78 481
e 78 518
e 79 119
e 79 192
e 79 384
e 79 443
e 79 516
e 80 81
e 80 119
e 80 194
e 80 209
e 80 281
e 80 518
e 80 671
e 81 94
e 81 110
e 81 382
e 81 479
e 81 485
e 81 519
e 81 553
e 81 559
e 81 561
e 82 110
e 82 164
e 82 187
e 82 598
e 82 609
e 82 614
e 83 86
e 83 112
e 83 380
e 83 396
e 83 642
e 83 663
e 84 85
e 84 278
e 84 346
e 84 363
e 84 470
e 84 519
e 85 279
e 85 285
e 85 362
e 85 501
e 85 519
e 85 553
e 85 626
e 86 93
e 86 115
e 86 146
e 86 167
e 86 652
e 87 88
e 87 89
e 87 97
e 87 102
e 87 442
e 87 475
e 87 485
e 88 90
e 88 396
e 88 485
e 88 553
e 88 598
e 88 609
e 88 625
e 89 90
e 89 109
e 89 277
e 89 278
e 89 455
e 89 559
e 90 98
e 90 124
e 90 205
e 90 279
e 90 385
e 90 463
e 90 552
e 90 553
e 90 559
e 91 346
e 91 382
e 91 416
e 91 549
e 91 669
e 91 699
e 92 238
e 92 239
e 92 500
e 92 503
e 92 606
e 92 654
e 92 659
e 93 94
e 93 113
e 93 114
e 93 115
e 93 239
e 93 535
e 93 578
e 93 611
e 93 642
e 93 674
e 94 103
e 94 238
e 94 381
e 94 439
e 94 460
e 94 518
e 94 519
e 94 520
e 94 557
e 94 645
e 94 702
e 95 113
e 95 396
e 95 455
e 95 463
e 95 520
e 95 536
e 95 594
e 95 597
e 95 606
e 95 671
e 96 401
e 96 414
e 96 502
e 96 542
e 96 649
e 97 109
e 97 111
e 97 206
e 97 433
e 97 625
e 97 654
e 97 673
e 97 682
e 98 108
e 98 235
e 98 455
e 98 521
e 98 552
e 98 610
e 99 100
e 99 252
e 99 298
e 99 352
e 99 369
e 99 632
e 100 253
e 100 493
e 100 541
e 100 576
e 100 632
e 100 644
e 101 109
e 101 119
e 101 208
e 101 229
e 101 421
e 101 461
e 101 601
e 102 117
e 102 437
e 102 443
e 102 598
e 102 645
e 102 646
e 102 702
e 103 105
e 103 110
e 103 180
e 103 253
e 103 440
e 103 462
e 103 546
e 103 578
e 103 702
e 104 105
e 104 113
e 104 384
e 104 429
e 104 521
e 104 578
e 104 597
e 104 607
e 104 643
e 105 388
e 105 520
e 105 558
e 105 597
e 105 627
e 105 646
e 106 352
e 106 381
e 106 515
e 106 535
e 106 646
e 106 669
e 106 699
e 107 262
e 107 266
e 107 267
e 107 299
e 107 492
e 107 499
e 107 624
e 107 643
e 108 113
e 108 117
e 108 299
e 108 443
e 108 455
e 108 479
e 108 559
e 109 119
e 109 267
e 109 416
e 109 455
e 109 547
e 109 552
e 109 671
e 109 682
e 110 111
e 110 253
e 110 379
e 110 479
e 110 560
e 110 580
e 110 682
e 111 114
e 111 262
e 111 388
e 111 485
e 111 516
e 111 625
e 112 118
e 112 169
e 112 183
e 112 276
e 112 552
e 112 646
e 113 142
e 113 299
e 113 474
e 113 520
e 113 611
e 113 643
e 114 124
e 114 205
e 114 262
e 114 383
e 114 578
e 114 598
e 114 643
e 114 673
e 114 702
e 115 131
e 115 142
e 115 439
e 115 454
e 115 484
e 115 609
e 116 161
e 116 168
e 116 191
e 116 333
e 116 336
e 116 434
e 116 464
e 117 119
e 117 150
e 117 168
e 117 614
e 117 627
e 118 119
e 118 217
e 118 429
e 118 474
e 118 552
e 118 614
e 118 642
e 119 192
e 119 206
e 119 518
e 119 627
e 120 133
e 120 224
e 120 230
e 120 466
e 120 480
e 120 498
e 120 572
e 121 123
e 121 128
e 121 130
e 121 136
e 121 139
e 121 223
e 121 433
e 122 123
e 122 124
e 122 129
e 122 134
e 122 140
e 122 428
e 122 675
e 123 125
e 123 126
e 123 127
e 123 128
e 123 129
e 123 130
e 123 131
e 123 132
e 123 133
e 123 135
e 123 137
e 123 138
e 123 141
e 123 224
e 123 428
e 123 430
e 123 444
e 123 445
e 123 446
e 123 456
e 123 526
e 123 567
e 123 593
e 123 619
e 124 145
e 124 280
e 124 383
e 124 516
e 125 126
e 125 143
e 125 225
e 125 330
e 125 421
e 125 444
e 125 633
e 126 127
e 126 144
e 126 226
e 126 359
e 126 379
e 127 145
e 127 156
e 127 619
e 127 700
e 128 129
e 128 147
e 128 257
e 128 397
e 128 476
e 128 716
e 129 148
e 129 256
e 129 395
e 129 600
e 130 150
e 130 312
e 130 394
e 130 428
e 130 516
e 130 548
e 130 627
e 131 133
e 131 151
e 131 324
e 131 446
e 131 480
e 131 589
e 132 133
e 132 153
e 132 230
e 132 408
e 132 567
e 132 594
e 133 142
e 133 154
e 133 326
e 133 356
e 134 175
e 134 252
e 134 256
e 134 303
e 134 325
e 134 423
e 134 526
e 134 532
e 134 548
e 134 563
e 134 608
e 134 650
e 134 689
e 134 690
e 135 155
e 135 220
e 135 253
e 135 257
e 135 258
e 135 404
e 135 526
e 135 527
e 135 541
e 135 591
e 135 600
e 135 621
e 136 137
e 136 154
e 136 232
e 136 256
e 136 259
e 136 326
e 136 329
e 136 470
e 136 530
e 136 548
e 136 571
e 136 572
e 136 622
e 136 647
e 136 704
e 137 138
e 137 158
e 137 173
e 137 233
e 137 243
e 137 258
e 137 285
e 137 327
e 137 548
e 137 635
e 137 707
e 138 157
e 138 285
e 138 310
e 138 311
e 138 312
e 138 405
e 138 408
e 138 426
e 138 430
e 138 450
e 138 551
e 138 587
e 138 591
e 138 648
e 139 141
e 139 147
e 139 150
e 139 156
e 139 159
e 139 440
e 139 719
e 140 141
e 140 142
e 140 148
e 140 149
e 140 158
e 140 160
e 141 143
e 141 144
e 141 145
e 141 146
e 141 147
e 141 148
e 141 149
e 141 150
e 141 151
e 141 152
e 141 153
e 141 154
e 141 155
e 141 157
e 141 161
e 141 423
e 141 424
e 141 434
e 141 452
e 141 563
e 141 631
e 141 647
e 141 688
e 142 288
e 142 385
e 142 560
e 142 580
e 143 144
e 143 163
e 143 358
e 143 388
e 143 423
e 144 145
e 144 164
e 144 334
e 144 690
e 145 146
e 145 356
e 145 522
e 146 165
e 146 391
e 146 619
e 146 688
e 147 148
e 147 390
e 147 568
e 147 684
e 148 269
e 148 387
e 149 150
e 149 166
e 149 314
e 149 316
e 149 428
e 149 580
e 149 614
e 150 315
e 150 386
e 151 154
e 151 167
e 151 347
e 151 389
e 151 424
e 151 425
e 152 153
e 152 168
e 152 392
e 152 434
e 152 567
e 153 154
e 153 169
e 153 492
e 153 499
e 153 530
e 153 594
e 153 692
e 154 170
e 155 200
e 155 262
e 155 269
e 155 270
e 155 391
e 155 407
e 155 453
e 155 499
e 155 563
e 155 568
e 155 681
e 155 719
e 156 171
e 156 263
e 156 314
e 156 330
e 156 526
e 156 534
e 156 550
e 156 563
e 156 590
e 156 596
e 156 655
e 156 684
e 156 714
e 156 719
e 157 195
e 157 313
e 157 315
e 157 316
e 157 392
e 157 402
e 157 426
e 157 551
e 157 647
e 157 654
e 157 692
e 158 271
e 158 286
e 158 314
e 158 333
e 158 456
e 158 589
e 158 635
e 158 647
e 158 657
e 158 658
e 158 676
e 158 684
e 158 703
e 159 161
e 159 171
e 159 177
e 159 386
e 159 390
e 159 704
e 160 161
e 160 166
e 160 175
e 160 178
e 160 383
e 160 385
e 160 387
e 160 658
e 161 162
e 161 163
e 161 164
e 161 165
e 161 166
e 161 167
e 161 168
e 161 169
e 161 170
e 161 172
e 161 173
e 161 174
e 161 176
e 161 179
e 161 386
e 161 387
e 161 390
e 161 417
e 161 464
e 161 504
e 161 522
e 161 564
e 162 165
e 162 181
e 162 283
e 162 564
e 162 688
e 163 164
e 163 269
e 163 564
e 163 585
e 164 183
e 164 349
e 164 522
e 165 347
e 165 522
e 165 663
e 166 187
e 166 384
e 166 386
e 166 406
e 167 170
e 167 189
e 167 315
e 167 464
e 168 169
e 168 192
e 168 358
e 169 170
e 169 193
e 169 318
e 169 594
e 170 194
e 170 538
e 170 579
e 170 622
e 171 172
e 171 221
e 171 259
e 171 337
e 171 403
e 171 406
e 171 465
e 171 655
e 171 672
e 171 704
e 171 713
e 172 173
e 172 222
e 172 258
e 172 283
e 172 403
e 172 404
e 172 418
e 172 465
e 172 532
e 172 538
e 172 563
e 173 197
e 173 243
e 173 269
e 173 391
e 173 405
e 173 579
e 173 593
e 173 595
e 173 656
e 173 704
e 174 176
e 174 219
e 174 310
e 174 318
e 174 405
e 174 406
e 174 509
e 174 622
e 174 647
e 174 658
e 174 670
e 175 176
e 175 198
e 175 316
e 175 334
e 175 340
e 175 391
e 175 392
e 175 608
e 175 623
e 175 658
e 175 693
e 175 711
e 176 199
e 176 315
e 176 320
e 176 341
e 176 392
e 176 404
e 176 417
e 176 452
e 176 526
e 176 593
e 176 628
e 177 179
e 177 180
e 177 185
e 177 188
e 177 196
e 177 202
e 178 179
e 178 186
e 178 187
e 178 198
e 178 203
e 178 474
e 179 181
e 179 182
e 179 183
e 179 184
e 179 185
e 179 186
e 179 187
e 179 188
e 179 189
e 179 190
e 179 191
e 179 192
e 179 193
e 179 194
e 179 195
e 179 197
e 179 199
e 179 200
e 179 201
e 179 204
e 179 585
e 179 613
e 179 663
e 180 207
e 180 250
e 180 455
e 180 518
e 180 536
e 180 582
e 181 182
e 181 357
e 181 380
e 181 524
e 181 663
e 182 207
e 182 218
e 182 564
e 182 585
e 183 184
e 183 403
e 183 585
e 183 678
e 184 205
e 184 209
e 184 354
e 184 522
e 184 663
e 185 186
e 185 211
e 185 318
e 185 390
e 185 475
e 186 212
e 186 319
e 186 387
e 186 523
e 186 536
e 186 609
e 187 188
e 187 283
e 187 565
e 187 662
e 188 213
e 188 386
e 188 599
e 188 713
e 189 190
e 189 194
e 189 214
e 189 501
e 189 556
e 189 626
e 189 634
e 190 191
e 190 406
e 190 464
e 190 566
e 191 192
e 191 206
e 191 215
e 191 340
e 191 350
e 192 193
e 192 216
e 192 337
e 192 489
e 193 194
e 193 217
e 193 349
e 193 384
e 193 594
e 194 221
e 194 466
e 195 197
e 195 279
e 195 283
e 195 402
e 195 403
e 195 555
e 195 626
e 195 631
e 195 648
e 195 660
e 195 713
e 196 197
e 196 209
e 196 219
e 196 232
e 196 278
e 196 291
e 196 339
e 196 497
e 196 523
e 196 550
e 196 599
e 196 704
e 196 706
e 196 714
e 197 218
e 197 233
e 197 279
e 197 313
e 197 317
e 197 338
e 197 501
e 197 595
e 197 599
e 197 617
e 197 662
e 198 199
e 198 215
e 198 222
e 198 271
e 198 298
e 198 308
e 198 336
e 198 340
e 198 490
e 198 523
e 198 599
e 198 623
e 198 676
e 198 689
e 199 200
e 199 221
e 199 270
e 199 341
e 199 523
e 199 525
e 199 628
e 199 634
e 199 644
e 199 660
e 200 201
e 200 220
e 200 317
e 200 318
e 200 319
e 200 406
e 200 407
e 200 417
e 200 472
e 200 556
e 200 631
e 200 636
e 200 644
e 201 222
e 201 338
e 201 340
e 201 693
e 202 204
e 202 206
e 202 211
e 202 213
e 202 221
e 202 223
e 203 204
e 203 205
e 203 212
e 203 218
e 203 565
e 203 675
e 203 696
e 204 207
e 204 208
e 204 209
e 204 210
e 204 211
e 204 212
e 204 213
e 204 214
e 204 215
e 204 216
e 204 217
e 204 219
e 204 220
e 204 222
e 204 224
e 204 393
e 204 466
e 204 524
e 204 565
e 204 566
e 204 591
e 204 648
e 204 678
e 205 261
e 205 385
e 205 517
e 205 642
e 205 686
e 206 297
e 206 546
e 206 645
e 206 686
e 207 208
e 207 350
e 207 524
e 207 616
e 208 225
e 208 399
e 208 585
e 208 678
e 209 210
e 209 678
e 209 700
e 210 227
e 210 360
e 210 396
e 210 524
e 210 663
e 211 212
e 211 321
e 211 397
e 211 664
e 211 666
e 211 686
e 212 322
e 212 395
e 212 484
e 213 241
e 213 394
e 213 565
e 214 400
e 214 466
e 214 480
e 214 566
e 215 216
e 215 228
e 215 566
e 216 217
e 216 229
e 216 353
e 216 410
e 216 443
e 217 230
e 217 344
e 217 466
e 217 490
e 217 594
e 218 219
e 218 235
e 218 321
e 218 342
e 218 608
e 218 612
e 218 617
e 218 620
e 218 650
e 218 656
e 218 658
e 218 696
e 218 703
e 219 231
e 219 291
e 219 310
e 219 320
e 219 500
e 219 504
e 219 554
e 219 606
e 219 620
e 219 648
e 220 222
e 220 299
e 220 320
e 220 322
e 220 400
e 220 404
e 220 472
e 220 636
e 220 664
e 220 691
e 221 222
e 221 259
e 221 300
e 221 321
e 221 489
e 221 498
e 221 534
e 221 571
e 221 620
e 221 634
e 222 234
e 222 243
e 222 258
e 222 299
e 222 308
e 222 321
e 222 393
e 222 483
e 222 504
e 222 693
e 223 224
e 223 232
e 223 394
e 223 397
e 223 534
e 223 546
e 223 582
e 224 225
e 224 226
e 224 227
e 224 228
e 224 229
e 224 230
e 224 231
e 224 233
e 224 234
e 224 394
e 224 395
e 224 397
e 224 398
e 224 450
e 224 467
e 224 468
e 224 480
e 224 525
e 224 616
e 224 675
e 224 680
e 224 700
e 225 226
e 225 353
e 225 616
e 226 257
e 226 678
e 226 700
e 227 241
e 227 467
e 227 619
e 227 700
e 228 229
e 228 456
e 228 468
e 228 502
e 228 542
e 228 623
e 228 657
e 229 230
e 229 322
e 229 567
e 230 359
e 230 420
e 230 429
e 230 594
e 231 257
e 231 402
e 231 451
e 231 525
e 231 527
e 231 542
e 231 554
e 231 647
e 231 660
e 231 703
e 231 706
e 231 709
e 232 233
e 232 326
e 232 345
e 232 399
e 232 400
e 232 534
e 232 544
e 232 622
e 232 664
e 232 670
e 232 714
e 233 234
e 233 313
e 233 322
e 233 327
e 233 393
e 233 400
e 233 402
e 233 450
e 233 607
e 233 613
e 233 657
e 233 707
e 234 311
e 234 317
e 234 407
e 234 408
e 234 483
e 234 534
e 234 563
e 234 607
e 234 623
e 234 693
e 235 245
e 235 279
e 235 606
e 235 618
e 235 696
e 236 247
e 236 320
e 236 440
e 236 679
e 236 701
e 237 239
e 237 402
e 237 479
e 237 519
e 237 577
e 237 653
e 238 239
e 238 296
e 238 366
e 239 294
e 239 365
e 239 447
e 239 458
e 239 482
e 239 529
e 240 348
e 240 458
e 240 610
e 241 312
e 241 342
e 241 525
e 241 584
e 241 596
e 241 612
e 241 648
e 241 655
e 241 664
e 241 683
e 241 713
e 241 718
e 242 256
e 242 284
e 242 320
e 242 322
e 242 392
e 242 402
e 242 489
e 242 529
e 242 571
e 242 592
e 242 608
e 243 282
e 243 288
e 243 295
e 243 409
e 243 504
e 243 571
e 243 584
e 243 618
e 243 648
e 243 676
e 243 685
e 244 245
e 244 250
e 244 399
e 244 544
e 244 597
e 244 606
e 244 709
e 245 251
e 245 380
e 245 402
e 245 712
e 246 247
e 246 252
e 246 388
e 246 407
e 246 701
e 246 712
e 247 253
e 247 401
e 247 479
e 247 527
e 248 249
e 248 258
e 248 283
e 248 316
e 248 345
e 248 402
e 248 527
e 248 608
e 248 685
e 248 712
e 249 259
e 249 315
e 249 320
e 249 324
e 249 400
e 249 402
e 249 544
e 249 602
e 249 630
e 249 713
e 250 251
e 250 310
e 250 651
e 251 261
e 251 650
e 251 705
e 252 253
e 252 262
e 252 578
e 253 263
e 253 526
e 254 255
e 254 267
e 254 407
e 254 594
e 254 597
e 254 601
e 254 632
e 255 268
e 255 349
e 256 329
e 256 392
e 256 399
e 256 526
e 256 555
e 256 600
e 256 684
e 256 716
e 257 291
e 257 312
e 257 325
e 257 568
e 257 588
e 257 600
e 257 664
e 257 690
e 257 705
e 257 706
e 257 716
e 258 259
e 258 268
e 258 271
e 258 306
e 258 471
e 258 591
e 258 705
e 259 260
e 259 270
e 259 307
e 259 572
e 259 637
e 259 705
e 260 305
e 260 310
e 260 311
e 260 329
e 260 406
e 260 407
e 260 603
e 260 620
e 260 637
e 260 650
e 260 668
e 261 273
e 261 313
e 261 651
e 262 263
e 262 274
e 262 563
e 263 275
e 263 698
e 263 702
e 263 719
e 264 268
e 264 354
e 264 605
e 265 267
e 265 276
e 265 404
e 265 437
e 265 537
e 265 632
e 266 267
e 266 309
e 266 374
e 266 552
e 267 268
e 267 277
e 267 306
e 267 373
e 267 533
e 267 594
e 267 671
e 268 604
e 268 682
e 269 316
e 269 319
e 269 330
e 269 568
e 269 590
e 269 600
e 269 617
e 269 656
e 269 685
e 269 695
e 270 271
e 270 297
e 270 307
e 270 435
e 270 453
e 270 525
e 270 647
e 270 680
e 270 695
e 270 698
e 270 718
e 271 306
e 271 333
e 271 570
e 271 603
e 271 638
e 271 689
e 271 695
e 271 698
e 272 273
e 272 278
e 272 396
e 272 405
e 272 586
e 272 651
e 273 279
e 273 403
e 273 437
e 273 569
e 274 275
e 274 280
e 274 391
e 274 465
e 274 485
e 274 711
e 275 379
e 275 404
e 275 586
e 275 679
e 276 277
e 276 359
e 277 281
e 277 317
e 277 594
e 277 604
e 278 279
e 278 606
e 279 463
e 280 317
e 280 679
e 280 701
e 281 282
e 281 356
e 281 594
e 282 519
e 282 520
e 282 604
e 282 653
e 283 303
e 283 316
e 283 319
e 283 339
e 283 497
e 283 532
e 283 662
e 283 683
e 283 713
e 283 721
e 284 293
e 284 317
e 284 318
e 284 405
e 284 408
e 284 490
e 284 539
e 284 550
e 284 665
e 284 676
e 284 684
e 285 286
e 285 290
e 285 409
e 285 462
e 285 470
e 285 560
e 286 422
e 286 625
e 286 654
e 287 392
e 287 422
e 287 432
e 287 437
e 287 654
e 288 290
e 288 592
e 288 594
e 288 665
e 289 290
e 289 389
e 289 402
e 289 470
e 289 592
e 289 630
e 290 408
e 290 569
e 290 597
e 290 607
e 291 307
e 291 349
e 291 350
e 291 568
e 291 617
e 291 634
e 291 678
e 291 687
e 291 717
e 291 720
e 292 293
e 292 374
e 292 375
e 292 535
e 292 539
e 292 569
e 292 595
e 292 707
e 293 295
e 293 354
e 293 356
e 293 373
e 293 381
e 293 402
e 293 405
e 293 473
e 293 519
e 293 561
e 293 579
e 293 622
e 293 640
e 293 641
e 293 659
e 293 705
e 293 706
e 294 295
e 294 310
e 294 346
e 294 347
e 294 360
e 294 413
e 294 414
e 294 416
e 294 449
e 294 529
e 294 571
e 294 596
e 294 626
e 294 634
e 294 641
e 294 660
e 294 674
e 294 694
e 294 714
e 295 303
e 295 308
e 295 313
e 295 346
e 295 355
e 295 357
e 295 382
e 295 412
e 295 503
e 295 519
e 295 557
e 295 574
e 295 650
e 295 676
e 296 363
e 296 381
e 296 529
e 296 544
e 296 554
e 296 573
e 296 670
e 297 438
e 297 637
e 297 638
e 298 299
e 298 448
e 298 611
e 298 644
e 299 300
e 299 301
e 299 418
e 299 594
e 300 302
e 300 520
e 300 594
e 300 644
e 301 302
e 301 400
e 301 471
e 301 479
e 301 607
e 302 384
e 302 407
e 302 630
e 302 637
e 303 355
e 303 356
e 303 563
e 303 596
e 303 635
e 303 667
e 303 681
e 303 683
e 303 688
e 303 697
e 304 305
e 304 366
e 304 367
e 304 401
e 304 416
e 304 628
e 304 668
e 304 672
e 305 307
e 305 348
e 305 350
e 305 351
e 305 365
e 305 382
e 305 404
e 305 407
e 305 502
e 305 532
e 305 557
e 305 623
e 305 624
e 305 632
e 305 708
e 305 715
e 305 721
e 306 307
e 306 317
e 306 352
e 306 353
e 306 358
e 306 411
e 306 412
e 306 533
e 306 535
e 306 541
e 306 547
e 306 574
e 306 608
e 306 617
e 306 635
e 306 639
e 306 715
e 307 320
e 307 349
e 307 352
e 307 359
e 307 381
e 307 413
e 307 414
e 307 499
e 307 530
e 307 550
e 307 561
e 307 632
e 308 311
e 308 316
e 308 354
e 308 357
e 308 551
e 308 566
e 308 617
e 308 634
e 308 691
e 309 369
e 309 372
e 309 382
e 309 533
e 309 693
e 309 711
e 310 431
e 310 447
e 310 469
e 310 526
e 310 591
e 310 602
e 310 650
e 310 668
e 310 714
e 311 312
e 311 316
e 311 329
e 311 428
e 311 468
e 311 570
e 311 572
e 311 600
e 311 623
e 311 683
e 312 315
e 312 325
e 312 425
e 312 534
e 312 548
e 312 628
e 312 634
e 312 668
e 312 718
e 313 528
e 313 563
e 313 603
e 313 605
e 313 650
e 313 680
e 313 714
e 314 316
e 314 330
e 314 406
e 314 419
e 314 527
e 314 548
e 314 636
e 314 647
e 314 691
e 314 698
e 314 721
e 315 316
e 315 333
e 315 425
e 315 568
e 315 589
e 315 603
e 315 634
e 315 713
e 316 590
e 316 693
e 317 338
e 317 539
e 317 550
e 317 563
e 317 570
e 317 608
e 317 631
e 318 319
e 318 336
e 318 490
e 318 530
e 318 568
e 318 602
e 318 622
e 318 664
e 318 713
e 319 322
e 319 339
e 319 410
e 319 523
e 319 539
e 319 635
e 319 658
e 319 685
e 319 707
e 320 504
e 320 526
e 320 550
e 320 608
e 320 610
e 321 342
e 321 403
e 321 408
e 321 420
e 321 523
e 321 551
e 321 594
e 321 618
e 321 664
e 321 692
e 321 705
e 322 410
e 322 489
e 322 498
e 322 528
e 322 600
e 322 635
e 322 657
e 322 664
e 322 683
e 323 324
e 323 325
e 323 327
e 323 328
e 323 343
e 323 572
e 323 613
e 323 633
e 324 342
e 324 347
e 324 355
e 324 400
e 324 408
e 324 572
e 324 589
e 324 703
e 325 333
e 325 350
e 325 355
e 325 431
e 325 612
e 325 616
e 325 633
e 325 650
e 325 680
e 326 327
e 326 427
e 326 430
e 326 545
e 326 706
e 327 487
e 327 507
e 327 595
e 328 329
e 328 330
e 328 331
e 328 426
e 328 589
e 328 591
e 328 690
e 329 332
e 329 345
e 329 348
e 329 357
e 329 424
e 329 589
e 330 337
e 330 348
e 330 353
e 330 453
e 330 593
e 330 633
e 330 690
e 330 695
e 331 332
e 331 333
e 331 334
e 331 335
e 331 509
e 331 590
e 331 680
e 332 333
e 332 347
e 332 355
e 332 392
e 332 406
e 332 424
e 332 497
e 332 570
e 332 631
e 332 704
e 333 336
e 333 350
e 333 358
e 333 568
e 334 358
e 334 359
e 334 391
e 334 403
e 334 418
e 334 490
e 334 588
e 334 590
e 334 594
e 334 631
e 334 690
e 335 336
e 335 337
e 335 339
e 335 341
e 335 488
e 335 593
e 335 629
e 336 337
e 336 348
e 336 357
e 336 504
e 336 612
e 336 676
e 336 713
e 337 349
e 337 353
e 337 392
e 337 406
e 337 489
e 337 528
e 338 339
e 338 411
e 338 607
e 339 349
e 339 356
e 339 498
e 339 504
e 339 522
e 339 550
e 339 590
e 339 629
e 340 341
e 340 377
e 340 532
e 340 661
e 341 477
e 341 514
e 341 672
e 342 347
e 342 354
e 342 409
e 342 488
e 342 497
e 342 584
e 342 613
e 342 629
e 342 663
e 343 344
e 343 345
e 343 483
e 343 488
e 343 498
e 343 504
e 343 612
e 344 349
e 344 353
e 344 400
e 344 408
e 344 490
e 344 498
e 344 591
e 344 602
e 344 689
e 344 690
e 345 357
e 345 360
e 345 399
e 345 451
e 345 497
e 345 524
e 345 527
e 345 591
e 345 612
e 346 361
e 346 551
e 346 575
e 346 618
e 347 556
e 347 590
e 347 596
e 347 626
e 347 631
e 347 653
e 347 656
e 347 692
e 348 434
e 348 444
e 348 494
e 348 529
e 348 530
e 348 542
e 348 593
e 348 596
e 348 612
e 348 623
e 348 656
e 349 411
e 349 499
e 349 504
e 349 532
e 349 556
e 349 690
e 349 692
e 350 457
e 350 489
e 350 497
e 350 502
e 350 529
e 350 532
e 350 613
e 350 634
e 350 657
e 351 358
e 351 418
e 351 499
e 351 532
e 352 368
e 352 370
e 352 636
e 352 698
e 353 537
e 353 541
e 353 587
e 353 591
e 353 612
e 353 617
e 353 655
e 353 691
e 354 466
e 354 490
e 354 491
e 354 533
e 354 538
e 354 572
e 354 590
e 354 613
e 354 617
e 354 622
e 354 655
e 355 446
e 355 449
e 355 467
e 355 481
e 355 497
e 355 503
e 355 587
e 355 680
e 355 691
e 355 706
e 356 498
e 356 533
e 356 579
e 356 589
e 356 593
e 356 635
e 356 690
e 356 706
e 357 464
e 357 500
e 357 504
e 357 555
e 357 577
e 357 622
e 357 629
e 357 681
e 358 489
e 358 493
e 358 555
e 358 601
e 358 631
e 358 633
e 358 635
e 358 681
e 359 490
e 359 492
e 359 530
e 359 572
e 359 621
e 359 623
e 359 633
e 359 680
e 359 687
e 360 473
e 360 480
e 360 498
e 360 501
e 360 589
e 360 591
e 360 621
e 360 629
e 360 634
e 360 652
e 360 657
e 360 687
e 361 363
e 361 412
e 361 414
e 361 512
e 361 575
e 362 363
e 362 364
e 362 371
e 362 372
e 362 529
e 363 371
e 363 511
e 363 573
e 364 365
e 364 369
e 364 377
e 364 413
e 364 529
e 364 573
e 364 576
e 364 632
e 365 366
e 365 375
e 365 413
e 365 436
e 365 624
e 365 659
e 366 367
e 366 513
e 366 573
e 366 659
e 367 368
e 367 373
e 367 478
e 367 624
e 368 370
e 368 401
e 368 412
e 368 414
e 368 477
e 369 370
e 369 372
e 369 495
e 369 576
e 370 413
e 370 496
e 370 574
e 371 372
e 371 373
e 371 412
e 371 427
e 371 519
e 371 533
e 371 576
e 372 374
e 372 487
e 373 374
e 373 412
e 373 415
e 373 624
e 373 659
e 374 375
e 374 486
e 374 624
e 375 508
e 375 575
e 375 659
e 376 412
e 376 419
e 376 459
e 376 661
e 377 506
e 377 661
e 378 413
e 378 420
e 378 510
e 378 545
e 379 398
e 379 421
e 379 546
e 379 580
e 379 598
e 380 385
e 380 390
e 380 461
e 380 463
e 380 558
e 380 686
e 381 535
e 381 557
e 381 561
e 381 583
e 382 416
e 382 552
e 382 557
e 382 561
e 382 581
e 383 385
e 383 388
e 383 389
e 383 474
e 383 614
e 384 385
e 384 559
e 384 580
e 385 609
e 386 388
e 386 391
e 386 465
e 387 389
e 387 390
e 387 392
e 388 421
e 388 516
e 389 441
e 389 521
e 389 536
e 389 673
e 390 403
e 391 465
e 391 548
e 391 584
e 391 599
e 391 621
e 391 629
e 391 681
e 391 704
e 391 718
e 392 523
e 392 528
e 392 587
e 392 692
e 392 704
e 393 409
e 393 410
e 393 707
e 394 398
e 394 400
e 394 443
e 395 396
e 395 397
e 395 399
e 395 675
e 395 709
e 396 461
e 396 536
e 396 582
e 397 408
e 397 442
e 398 428
e 398 527
e 398 565
e 398 675
e 399 523
e 399 525
e 399 555
e 399 633
e 399 648
e 399 685
e 399 687
e 399 689
e 399 695
e 399 709
e 400 548
e 400 556
e 400 599
e 400 603
e 400 689
e 400 691
e 401 438
e 401 649
e 402 451
e 402 529
e 402 544
e 402 613
e 402 705
e 403 555
e 403 588
e 403 629
e 403 658
e 403 684
e 403 687
e 403 705
e 404 418
e 404 448
e 404 528
e 404 533
e 404 588
e 404 593
e 404 603
e 404 711
e 404 721
e 405 422
e 405 482
e 405 529
e 405 570
e 405 593
e 405 648
e 405 695
e 405 718
e 406 419
e 406 438
e 406 556
e 406 570
e 406 620
e 406 658
e 406 691
e 407 525
e 407 533
e 407 584
e 407 602
e 407 613
e 407 685
e 408 420
e 408 534
e 408 587
e 408 602
e 408 684
e 408 692
e 408 703
e 409 491
e 409 648
e 410 415
e 410 472
e 410 506
e 410 617
e 411 538
e 411 617
e 412 414
e 412 574
e 412 649
e 413 414
e 413 574
e 413 575
e 413 604
e 415 506
e 415 510
e 416 533
e 416 547
e 416 674
e 416 677
e 417 418
e 417 419
e 417 636
e 419 459
e 419 464
e 419 509
e 419 681
e 420 450
e 420 483
e 420 510
e 420 687
e 421 460
e 422 442
e 422 531
e 422 665
e 423 444
e 423 454
e 423 564
e 423 688
e 424 434
e 424 439
e 424 441
e 424 446
e 424 464
e 425 426
e 425 436
e 425 452
e 425 505
e 425 596
e 426 508
e 426 511
e 427 505
e 427 545
e 428 429
e 429 559
e 429 614
e 429 627
e 430 431
e 430 647
e 430 670
e 431 449
e 431 526
e 432 433
e 432 592
e 432 660
e 432 665
e 433 434
e 433 439
e 433 516
e 433 582
e 433 645
e 434 456
e 435 457
e 435 537
e 435 625
e 435 632
e 435 649
e 436 459
e 436 505
e 437 463
e 437 598
e 437 671
e 437 673
e 438 448
e 438 485
e 438 644
e 439 441
e 439 460
e 439 475
e 439 666
e 440 444
e 440 455
e 440 546
e 440 580
e 440 615
e 441 442
e 441 517
e 441 686
e 442 446
e 442 462
e 442 546
e 442 686
e 443 448
e 443 516
e 443 582
e 444 445
e 444 616
e 445 460
e 445 467
e 445 527
e 445 619
e 445 688
e 446 456
e 446 468
e 447 457
e 447 577
e 447 578
e 447 649
e 448 531
e 448 638
e 449 542
e 449 596
e 450 451
e 450 551
e 451 473
e 451 654
e 452 453
e 452 628
e 452 647
e 453 494
e 453 644
e 454 456
e 454 457
e 455 558
e 455 582
e 455 594
e 455 606
e 456 567
e 458 481
e 458 611
e 458 649
e 458 660
e 460 461
e 460 468
e 460 577
e 461 518
e 461 524
e 461 615
e 462 475
e 462 560
e 462 578
e 462 597
e 462 673
e 463 476
e 463 611
e 463 645
e 463 686
e 464 475
e 465 540
e 466 474
e 467 476
e 467 524
e 467 616
e 468 480
e 468 566
e 469 470
e 469 475
e 469 630
e 469 637
e 470 654
e 470 682
e 471 474
e 471 637
e 471 638
e 472 478
e 472 488
e 472 495
e 473 503
e 473 706
e 474 536
e 474 560
e 475 609
e 475 666
e 476 518
e 476 558
e 476 627
e 476 666
e 477 478
e 477 514
e 478 495
e 479 521
e 479 558
e 480 484
e 481 482
e 482 485
e 482 519
e 482 652
e 483 486
e 483 496
e 484 521
e 484 609
e 484 666
e 484 673
e 485 559
e 486 487
e 486 496
e 487 507
e 488 489
e 488 490
e 488 497
e 488 631
e 489 490
e 489 613
e 489 620
e 489 633
e 490 599
e 491 501
e 491 687
e 492 499
e 492 549
e 492 563
e 493 494
e 493 526
e 493 541
e 493 549
e 493 567
e 494 681
e 495 496
e 497 523
e 497 524
e 497 721
e 498 571
e 498 572
e 498 683
e 499 583
e 500 503
e 500 515
e 500 566
e 501 515
e 501 626
e 502 525
e 502 542
e 502 581
e 503 566
e 503 581
e 503 648
e 507 508
e 507 575
e 508 511
e 509 512
e 509 513
e 509 554
e 509 647
e 511 512
e 512 513
e 513 514
e 514 573
e 516 580
e 516 627
e 517 522
e 517 671
e 518 524
e 518 642
e 519 605
e 520 645
e 520 646
e 521 553
e 521 558
e 521 560
e 521 607
e 522 590
e 523 551
e 523 587
e 523 695
e 525 526
e 525 613
e 525 655
e 525 672
e 525 689
e 526 596
e 526 672
e 526 716
e 527 534
e 527 620
e 527 621
e 527 633
e 527 681
e 527 703
e 527 721
e 528 531
e 528 570
e 528 588
e 528 600
e 528 676
e 528 711
e 529 535
e 529 542
e 529 547
e 529 656
e 529 657
e 529 695
e 530 596
e 530 635
e 530 636
e 530 647
e 530 664
e 530 692
e 531 570
e 532 555
e 532 556
e 532 564
e 532 656
e 532 672
e 532 689
e 533 538
e 533 576
e 533 584
e 533 603
e 533 655
e 533 674
e 534 550
e 534 628
e 534 633
e 535 543
e 535 547
e 535 671
e 535 674
e 536 609
e 536 686
e 538 562
e 538 579
e 538 677
e 539 639
e 540 621
e 540 655
e 541 543
e 541 567
e 542 543
e 543 595
e 544 641
e 546 582
e 546 627
e 548 556
e 548 584
e 548 636
e 548 690
e 550 679
e 550 718
e 550 721
e 551 634
e 551 670
e 551 707
e 552 560
e 552 561
e 552 625
e 552 632
e 553 560
e 553 562
e 553 643
e 553 677
e 554 568
e 554 583
e 554 656
e 554 672
e 554 681
e 554 704
e 554 710
e 555 585
e 555 617
e 555 622
e 555 672
e 555 710
e 555 717
e 556 622
e 556 634
e 556 707
e 558 666
e 558 682
e 559 644
e 559 645
e 560 625
e 560 682
e 562 569
e 562 574
e 562 579
e 562 604
e 562 607
e 562 643
e 563 680
e 563 684
e 564 656
e 565 620
e 565 683
e 566 691
e 567 587
e 567 635
e 568 602
e 568 684
e 568 704
e 568 719
e 569 575
e 569 604
e 569 671
e 570 683
e 570 718
e 571 584
e 571 592
e 571 602
e 571 618
e 571 660
e 571 704
e 572 590
e 572 600
e 572 680
e 573 576
e 574 575
e 579 583
e 580 594
e 580 614
e 582 666
e 583 643
e 584 594
e 584 608
e 584 701
e 584 721
e 585 617
e 586 588
e 586 718
e 587 623
e 587 628
e 587 635
e 587 706
e 588 660
e 588 664
e 588 714
e 588 718
e 589 593
e 589 603
e 589 629
e 589 684
e 590 714
e 592 594
e 594 601
e 594 608
e 594 614
e 594 664
e 594 690
e 595 600
e 595 621
e 595 667
e 595 703
e 595 706
e 596 619
e 596 621
e 596 713
e 597 671
e 598 611
e 598 614
e 598 643
e 599 603
e 599 620
e 599 621
e 599 662
e 599 713
e 600 617
e 600 703
e 601 610
e 602 630
e 602 685
e 603 638
e 603 714
e 604 605
e 604 646
e 605 652
e 605 702
e 606 648
e 608 612
e 608 701
e 610 632
e 610 649
e 611 645
e 612 616
e 612 664
e 615 616
e 618 640
e 619 621
e 620 681
e 620 683
e 621 623
e 621 667
e 621 706
e 622 707
e 623 628
e 623 657
e 626 677
e 628 636
e 628 670
e 629 658
e 629 663
e 629 718
e 631 660
e 633 685
e 635 636
e 636 693
e 642 663
e 643 646
e 643 671
e 644 645
e 646 669
e 646 671
e 646 702
e 647 654
e 647 660
e 647 670
e 647 680
e 648 683
e 648 687
e 648 696
e 650 658
e 650 685
e 650 705
e 651 695
e 651 714
e 654 673
e 655 687
e 655 691
e 655 700
e 655 706
e 655 720
e 656 681
e 656 692
e 656 697
e 656 703
e 656 710
e 657 658
e 657 670
e 657 687
e 657 691
e 658 707
e 660 676
e 660 721
e 662 667
e 664 670
e 665 676
e 666 686
e 668 694
e 670 691
e 671 673
e 671 674
e 672 677
e 672 713
e 672 717
e 673 702
e 675 689
e 675 703
e 676 703
e 676 721
e 678 687
e 679 721
e 681 688
e 683 689
e 683 696
e 684 687
e 685 712
e 689 703
e 690 705
e 692 693
e 693 707
e 695 705
e 695 714
e 696 697
e 698 708
e 700 706
e 703 709
e 704 706
e 709 710
e 711 715
e 716 717
e 719 720
